%SETS
JOBS     = 1..5;
MACHINES = 1..8;
SPEED    = 1;

time               = array3d(JOBS,MACHINES,1..SPEED,[96, 44, 81, 57, 61, 93, 16, 17, 11, 84, 80, 88, 98, 81, 51, 80, 20, 67, 22, 95, 56, 47, 33, 79, 51, 61, 11, 65, 65, 65, 94, 71, 42, 49, 72, 15, 70, 70, 28, 21]);
energy             = array3d(JOBS,MACHINES,1..SPEED,[38, 64, 44, 56, 54, 39, 85, 84, 89, 43, 44, 41, 37, 44, 60, 44, 81, 51, 80, 38, 57, 62, 71, 45, 60, 54, 89, 52, 52, 52, 39, 49, 65, 61, 48, 86, 49, 49, 75, 81]);
precedence         = array2d(JOBS,MACHINES,[1,3,2,6,4,5,7,0,2,0,1,7,6,4,5,3,6,2,3,4,7,1,0,5,6,5,0,3,1,7,2,4,5,4,3,1,0,7,6,2]);